9,5	0,0	13,4	15,7	0,0	0,0	0,0	0,0	0,0	14,9
6,2	6,8	0,0	5,5	9,5	0,0	0,0	9,9	0,0	0,0
0,0	0,0	10,5	0,0	7,3	15,6	0,0	0,0	15,1	0,0
13,0	0,0	15,9	0,0	0,0	0,0	17,7	0,0	0,0	0,0
0,0	5,1	0,0	8,2	13,1	0,0	0,0	7,9	0,0	0,0
0,0	7,3	15,8	0,0	10,8	10,2	0,0	0,0	16,9	0,0
0,0	15,6	0,0	15,9	0,0	0,0	10,9	0,0	0,0	8,0
19,8	0,0	9,4	0,0	0,0	0,0	0,0	0,0	0,0	18,5
0,0	7,8	0,0	5,1	17,3	0,0	0,0	6,8	0,0	0,0
0,0	0,0	13,2	0,0	0,0	9,9	10,2	0,0	0,0	8,3
									
4,1	3,2	4,4	4,1	3,1	3,5	2,8	4,8	2,8	3,4
